Minimize
  - 17 y_0 - 24 y_1 - 18 y_3 - 34 y_4 - 21 y_5 - 28 y_6 - 10 y_7 - 11 y_8
   - 19 y_9 + 56 x_0_1 + 34 x_0_3 + 62 x_0_5 + 57 x_0_6 + 68 x_0_9
   + 48 x_1_2 + 79 x_1_3 + 116 x_1_4 + 21 x_1_5 + 14 x_1_6 + 56 x_1_8
   + 68 x_2_4 + 41 x_2_5 + 57 x_2_6 + 22 x_2_8 + 38 x_2_9 + 45 x_3_4
   + 76 x_3_5 + 53 x_3_7 + 25 x_3_8 + 51 x_3_9 + 124 x_4_6 + 69 x_4_8
   + 53 x_4_9 + 35 x_5_6 + 29 x_5_7 + 57 x_5_8 + 60 x_6_8 + 89 x_6_9
   + 42 x_7_8 + 55 x_8_9 + 182 Constant
Subject To
 c_0: y_1 = 1
 c_1_0: y_0 >= 1
 c_1_1: y_1 >= 1
 c_1_2: y_2 >= 1
 c_1_3: y_3 >= 1
 c_1_4: y_4 >= 1
 c_1_5: y_5 >= 1
 c_1_6: y_6 >= 1
 c_1_7: y_7 >= 1
 c_1_8: y_8 >= 1
 c_1_9: y_9 >= 1
 c_2_0: - 2 y_0 + x_0_1 + x_0_3 + x_0_5 + x_0_6 + x_0_9 = 0
 c_2_1: - 2 y_1 + x_0_1 + x_1_2 + x_1_3 + x_1_4 + x_1_5 + x_1_6 + x_1_8
   = 0
 c_2_2: - 2 y_2 + x_1_2 + x_2_4 + x_2_5 + x_2_6 + x_2_8 + x_2_9 = 0
 c_2_3: - 2 y_3 + x_0_3 + x_1_3 + x_3_4 + x_3_5 + x_3_7 + x_3_8 + x_3_9
   = 0
 c_2_4: - 2 y_4 + x_1_4 + x_2_4 + x_3_4 + x_4_6 + x_4_8 + x_4_9 = 0
 c_2_5: - 2 y_5 + x_0_5 + x_1_5 + x_2_5 + x_3_5 + x_5_6 + x_5_7 + x_5_8
   = 0
 c_2_6: - 2 y_6 + x_0_6 + x_1_6 + x_2_6 + x_4_6 + x_5_6 + x_6_8 + x_6_9
   = 0
 c_2_7: - 2 y_7 + x_3_7 + x_5_7 + x_7_8 = 0
 c_2_8: - 2 y_8 + x_1_8 + x_2_8 + x_3_8 + x_4_8 + x_5_8 + x_6_8 + x_7_8
   + x_8_9 = 0
 c_2_9: - 2 y_9 + x_0_9 + x_2_9 + x_3_9 + x_4_9 + x_6_9 + x_8_9 = 0
Bounds
 Constant = 1
Binaries
 y_0 y_1 y_2 y_3 y_4 y_5 y_6 y_7 y_8 y_9 x_0_1 x_0_3 x_0_5 x_0_6 x_0_9
 x_1_2 x_1_3 x_1_4 x_1_5 x_1_6 x_1_8 x_2_4 x_2_5 x_2_6 x_2_8 x_2_9 x_3_4
 x_3_5 x_3_7 x_3_8 x_3_9 x_4_6 x_4_8 x_4_9 x_5_6 x_5_7 x_5_8 x_6_8 x_6_9
 x_7_8 x_8_9
End
